Name: Sample Timetable
Courses: 2
Rooms: 2
Days: 5
Periods_per_day: 4
Curricula: 2
Constraints: 2

COURSES:
C1 T1 4 2 50 
C2 T1 3 3 30 

ROOMS:
R1 100
R2 50 

CURRICULA:
CUR1 2 C1 C2
CUR2 1 C2

UNAVAILABILITY_CONSTRAINTS:
C1 0 1
C1 3 2
C2 2 3

END.
